
Starting CP-SAT solver v9.15.6755
Parameters: random_seed: 2026073591 max_time_in_seconds: 2500 log_search_progress: true cp_model_presolve: true linearization_level: 2 num_search_workers: 4 cp_model_probing_level: 2 symmetry_level: 2

Initial satisfaction model '': (model_fingerprint: 0x67635d3ad39e70b4)
#Variables: 724 (608 primary variables)
  - 724 Booleans in [0,1]
#kBoolAnd: 110 (#enforced: 110) (#literals: 330)
#kBoolOr: 110 (#enforced: 110) (#literals: 220)
#kExactlyOne: 87 (#literals: 261)
#kLinear1: 32 (#enforced: 6)
#kLinear2: 336 (#enforced: 336) (#complex_domain: 110)
#kLinear3: 1'600 (#enforced: 6)
#kLinearN: 1'132 (#enforced: 243) (#terms: 9'111)

Starting presolve at 0.00s
  6.68e-04s  0.00e+00d  [DetectDominanceRelations] 
  8.90e-03s  0.00e+00d  [PresolveToFixPoint] #num_loops=3 #num_dual_strengthening=1 
  3.53e-05s  0.00e+00d  [ExtractEncodingFromLinear] #potential_supersets=91 
  3.28e-04s  0.00e+00d  [DetectDuplicateColumns] 
  1.12e-04s  0.00e+00d  [DetectDuplicateConstraints] #duplicates=5 
[Symmetry] Graph for symmetry has 4'871 nodes and 15'724 arcs.
[Symmetry] Symmetry computation done. time: 0.00125975 dtime: 0.00180569
[SAT presolve] num removable Booleans: 220 / 628
[SAT presolve] num trivial clauses: 0
[SAT presolve] [0s] clauses:2'736 literals:7'436 vars:507 one_side_vars:67 simple_definition:1 singleton_clauses:0
[SAT presolve] [0.000214554s] clauses:2'735 literals:7'429 vars:507 one_side_vars:67 simple_definition:1 singleton_clauses:0
[SAT presolve] [0.000662757s] clauses:2'250 literals:6'634 vars:379 one_side_vars:73 simple_definition:69 singleton_clauses:0
  1.15e-04s  0.00e+00d  [DetectDuplicateConstraintsWithDifferentEnforcements] #without_enforcements=4 
  5.49e-03s  2.35e-03d  [Probe] #probed=1'300 #fixed_bools=18 #equiv=10 #new_binary_clauses=1'012 
  4.60e-04s  2.70e-04d  [MaxClique] Merged 597 constraints with 1'344 literals into 521 constraints with 1'214 literals
  8.33e-04s  0.00e+00d  [DetectDominanceRelations] 
  3.10e-03s  0.00e+00d  [PresolveToFixPoint] #num_loops=1 #num_dual_strengthening=1 
  1.23e-03s  0.00e+00d  [ProcessAtMostOneAndLinear] #num_changes=2 
  1.04e-04s  0.00e+00d  [DetectDuplicateConstraints] #duplicates=10 
  8.64e-05s  0.00e+00d  [DetectDuplicateConstraintsWithDifferentEnforcements] 
  2.26e-03s  8.46e-05d  [DetectDominatedLinearConstraints] #relevant_constraints=818 #num_inclusions=430 #num_redundant=7 
  1.26e-04s  0.00e+00d  [DetectDifferentVariables] 
  7.06e-04s  8.24e-05d  [ProcessSetPPC] #relevant_constraints=2'974 #num_inclusions=82 
  2.86e-04s  3.38e-05d  [TransformClausesToExactlyOne] #num_amos=498 #num_clauses=1'668 #num_checked=1'668 
  3.89e-05s  0.00e+00d  [DetectEncodedComplexDomains] 
  3.24e-05s  2.80e-07d  [FindAlmostIdenticalLinearConstraints] #num_tested_pairs=3 
  8.77e-04s  1.34e-03d  [FindBigAtMostOneAndLinearOverlap] 
  1.14e-03s  1.07e-03d  [FindBigVerticalLinearOverlap] 
  3.91e-04s  7.28e-04d  [FindBigHorizontalLinearOverlap] #linears=460 
  3.13e-04s  2.71e-05d  [MergeClauses] #num_collisions=24 #num_merges=24 #num_saved_literals=119 
  8.07e-04s  0.00e+00d  [DetectDominanceRelations] 
  2.95e-03s  0.00e+00d  [PresolveToFixPoint] #num_loops=1 #num_dual_strengthening=1 
  7.95e-04s  0.00e+00d  [DetectDominanceRelations] 
  2.91e-03s  0.00e+00d  [PresolveToFixPoint] #num_loops=1 #num_dual_strengthening=1 
  1.93e-04s  0.00e+00d  [DetectDuplicateColumns] 
  8.57e-05s  0.00e+00d  [DetectDuplicateConstraints] 
[Symmetry] Graph for symmetry has 4'258 nodes and 13'475 arcs.
[Symmetry] Symmetry computation done. time: 0.000949166 dtime: 0.00145247
[SAT presolve] num removable Booleans: 91 / 471
[SAT presolve] num trivial clauses: 0
[SAT presolve] [0s] clauses:2'120 literals:6'324 vars:444 one_side_vars:145 simple_definition:80 singleton_clauses:0
[SAT presolve] [0.000207631s] clauses:2'120 literals:6'148 vars:444 one_side_vars:189 simple_definition:66 singleton_clauses:0
[SAT presolve] [0.000283724s] clauses:2'112 literals:6'142 vars:439 one_side_vars:190 simple_definition:52 singleton_clauses:0
  1.58e-04s  0.00e+00d  [DetectDuplicateConstraintsWithDifferentEnforcements] 
  4.60e-03s  1.77e-03d  [Probe] #probed=1'282 #new_binary_clauses=365 
  3.94e-04s  2.66e-04d  [MaxClique] Merged 496 constraints with 1'093 literals into 488 constraints with 1'090 literals
  8.21e-04s  0.00e+00d  [DetectDominanceRelations] 
  2.96e-03s  0.00e+00d  [PresolveToFixPoint] #num_loops=1 #num_dual_strengthening=1 
  1.09e-03s  0.00e+00d  [ProcessAtMostOneAndLinear] 
  1.19e-04s  0.00e+00d  [DetectDuplicateConstraints] 
  9.43e-05s  0.00e+00d  [DetectDuplicateConstraintsWithDifferentEnforcements] 
  1.67e-03s  6.85e-05d  [DetectDominatedLinearConstraints] #relevant_constraints=812 #num_inclusions=357 #num_redundant=1 
  1.22e-04s  0.00e+00d  [DetectDifferentVariables] 
  7.26e-04s  7.74e-05d  [ProcessSetPPC] #relevant_constraints=3'012 #num_inclusions=103 
  2.55e-04s  3.32e-05d  [TransformClausesToExactlyOne] #num_amos=487 #num_clauses=1'662 #num_checked=1'662 
  5.68e-05s  0.00e+00d  [DetectEncodedComplexDomains] 
  3.78e-05s  1.00e-07d  [FindAlmostIdenticalLinearConstraints] #num_tested_pairs=1 
  8.74e-04s  1.26e-03d  [FindBigAtMostOneAndLinearOverlap] 
  1.10e-03s  9.71e-04d  [FindBigVerticalLinearOverlap] #blocks=2 #saved_nz=65 
  3.77e-04s  6.24e-04d  [FindBigHorizontalLinearOverlap] #linears=456 
  3.18e-04s  2.62e-05d  [MergeClauses] #num_collisions=75 #num_merges=75 #num_saved_literals=228 
  8.32e-04s  0.00e+00d  [DetectDominanceRelations] 
  3.08e-03s  0.00e+00d  [PresolveToFixPoint] #num_loops=2 #num_dual_strengthening=1 
  8.21e-04s  0.00e+00d  [DetectDominanceRelations] 
  2.93e-03s  0.00e+00d  [PresolveToFixPoint] #num_loops=1 #num_dual_strengthening=1 
  2.10e-04s  0.00e+00d  [DetectDuplicateColumns] 
  1.08e-04s  0.00e+00d  [DetectDuplicateConstraints] 
[Symmetry] Graph for symmetry has 4'221 nodes and 13'102 arcs.
[Symmetry] Symmetry computation done. time: 0.000946141 dtime: 0.00131819
[SAT presolve] num removable Booleans: 85 / 469
[SAT presolve] num trivial clauses: 0
[SAT presolve] [0s] clauses:2'112 literals:6'140 vars:443 one_side_vars:193 simple_definition:54 singleton_clauses:0
[SAT presolve] [0.000201279s] clauses:2'111 literals:6'136 vars:443 one_side_vars:193 simple_definition:54 singleton_clauses:0
[SAT presolve] [0.000261102s] clauses:2'111 literals:6'136 vars:443 one_side_vars:193 simple_definition:54 singleton_clauses:0
  1.57e-04s  0.00e+00d  [DetectDuplicateConstraintsWithDifferentEnforcements] 
  5.40e-03s  1.88e-03d  [Probe] #probed=1'288 #new_binary_clauses=381 
  4.22e-04s  2.70e-04d  [MaxClique] 
  8.41e-04s  0.00e+00d  [DetectDominanceRelations] 
  3.01e-03s  0.00e+00d  [PresolveToFixPoint] #num_loops=1 #num_dual_strengthening=1 
  1.09e-03s  0.00e+00d  [ProcessAtMostOneAndLinear] 
  1.03e-04s  0.00e+00d  [DetectDuplicateConstraints] 
  1.07e-04s  0.00e+00d  [DetectDuplicateConstraintsWithDifferentEnforcements] 
  1.86e-03s  7.05e-05d  [DetectDominatedLinearConstraints] #relevant_constraints=811 #num_inclusions=378 
  1.23e-04s  0.00e+00d  [DetectDifferentVariables] 
  7.27e-04s  7.38e-05d  [ProcessSetPPC] #relevant_constraints=3'016 #num_inclusions=91 
  2.84e-04s  3.33e-05d  [TransformClausesToExactlyOne] #num_amos=490 #num_clauses=1'668 #num_checked=1'668 
  1.42e-04s  0.00e+00d  [DetectEncodedComplexDomains] 
  4.56e-05s  3.40e-07d  [FindAlmostIdenticalLinearConstraints] #num_tested_pairs=4 
  8.37e-04s  1.17e-03d  [FindBigAtMostOneAndLinearOverlap] 
  1.06e-03s  9.33e-04d  [FindBigVerticalLinearOverlap] 
  3.89e-04s  6.24e-04d  [FindBigHorizontalLinearOverlap] #linears=456 
  3.28e-04s  2.62e-05d  [MergeClauses] #num_collisions=75 #num_merges=75 #num_saved_literals=228 
  8.57e-04s  0.00e+00d  [DetectDominanceRelations] 
  3.03e-03s  0.00e+00d  [PresolveToFixPoint] #num_loops=1 #num_dual_strengthening=1 
  2.96e-05s  0.00e+00d  [MergeNoOverlap] 
  3.03e-05s  0.00e+00d  [MergeNoOverlap2D] 

Presolve summary:
  - 39 affine relations were detected.
  - rule 'TODO dual: only one blocking constraint?' was applied 843 times.
  - rule 'TODO dual: tighten at most one' was applied 8 times.
  - rule 'TODO linear inclusion: superset is equality' was applied 261 times.
  - rule 'affine: new relation' was applied 39 times.
  - rule 'at_most_one: removed literals' was applied 77 times.
  - rule 'at_most_one: size one' was applied 76 times.
  - rule 'at_most_one: transformed into max clique' was applied 2 times.
  - rule 'bool_or: implications' was applied 57 times.
  - rule 'bool_or: only one literal' was applied 12 times.
  - rule 'bool_or: removed enforcement literal' was applied 565 times.
  - rule 'deductions: 857 stored' was applied 1 time.
  - rule 'duplicate: merged rhs of linear constraint' was applied 14 times.
  - rule 'duplicate: removed constraint' was applied 15 times.
  - rule 'duplicate: removed enforced constraint' was applied 4 times.
  - rule 'enforcement: false literal' was applied 37 times.
  - rule 'enforcement: true literal' was applied 12 times.
  - rule 'exactly_one: removed literals' was applied 32 times.
  - rule 'exactly_one: satisfied' was applied 3 times.
  - rule 'exactly_one: singleton' was applied 3 times.
  - rule 'exactly_one: size two' was applied 29 times.
  - rule 'exactly_one: x and not(x)' was applied 8 times.
  - rule 'incompatible linear: add implication' was applied 123 times.
  - rule 'linear + amo: empty after processing' was applied 6 times.
  - rule 'linear + amo: extracted enforcement literal' was applied 102 times.
  - rule 'linear + amo: fixed literal implied by enforcement' was applied 1 time.
  - rule 'linear inclusion: redundant containing constraint' was applied 3 times.
  - rule 'linear inclusion: redundant included constraint' was applied 3 times.
  - rule 'linear inclusion: sparsify superset' was applied 2 times.
  - rule 'linear matrix: common vertical rectangle' was applied 2 times.
  - rule 'linear1: x in domain' was applied 26 times.
  - rule 'linear2: convert ax + by != cte to clauses' was applied 253 times.
  - rule 'linear2: convert implied ax + by == cte to clauses' was applied 116 times.
  - rule 'linear2: implied ax + by = cte has only one solution' was applied 8 times.
  - rule 'linear: always true' was applied 422 times.
  - rule 'linear: coefficient strengthening by increasing it' was applied 2 times.
  - rule 'linear: empty' was applied 1 time.
  - rule 'linear: extracted at most one (max)' was applied 1 time.
  - rule 'linear: fixed or dup variables' was applied 880 times.
  - rule 'linear: negative clause' was applied 1'297 times.
  - rule 'linear: negative reified and' was applied 78 times.
  - rule 'linear: never in domain' was applied 6 times.
  - rule 'linear: positive at most one' was applied 38 times.
  - rule 'linear: reduced variable domains' was applied 3 times.
  - rule 'linear: remapped using affine relations' was applied 23 times.
  - rule 'new_bool: integer encoding' was applied 3 times.
  - rule 'presolve: 83 unused variables removed.' was applied 1 time.
  - rule 'presolve: iteration' was applied 3 times.
  - rule 'probing: bool_or reduced to implication' was applied 24 times.
  - rule 'probing: simplified clauses' was applied 18 times.
  - rule 'probing: simplified enforcement list' was applied 1 time.
  - rule 'setppc: bool_or in at_most_one' was applied 7 times.
  - rule 'setppc: removed dominated constraints' was applied 84 times.
  - rule 'variables: add encoding constraint' was applied 3 times.

Presolved satisfaction model '': (model_fingerprint: 0x2dc152f4f8854472)
#Variables: 471 (406 primary variables)
  - 469 Booleans in [0,1]
  - 2 in [0,2]
#kAtMostOne: 47 (#literals: 196)
#kBoolAnd: 262 (#enforced: 262) (#literals: 705)
#kBoolAndClauses: 75 (#enforced: 75 #multi: 75) (#literals: 378)
#kBoolOr: 1'518 (#literals: 4'644)
#kExactlyOne: 50 (#literals: 196)
#kLinear1: 6 (#enforced: 6)
#kLinear3: 3 (#enforced: 2)
#kLinearN: 808 (#enforced: 121 #multi: 1) (#terms: 5'629)
[Symmetry] Graph for symmetry has 3'961 nodes and 13'098 arcs.
[Symmetry] Symmetry computation done. time: 0.000798152 dtime: 0.00130219

Preloading model.
#Model   0.09s var:471/471 constraints:2769/2769

Starting search at 0.09s with 4 workers.
3 full problem subsolvers: [default_lp, max_lp, no_lp]
1 first solution subsolver: [fj]
2 interleaved subsolvers: [feasibility_pump, rins/rens]
2 helper subsolvers: [neighborhood_helper, synchronization_agent]

#Model   0.34s var:470/471 constraints:2769/2769
#Model   0.71s var:468/471 constraints:2768/2769
#Model   1.43s var:467/471 constraints:2768/2769
#Model 1192.88s var:466/471 constraints:2764/2769
#Model 2026.01s var:465/471 constraints:2745/2769
#Model 2265.25s var:464/471 constraints:2729/2769
#Model 2302.96s var:463/471 constraints:2728/2769
#Model 2408.13s var:462/471 constraints:2708/2769
#Model 2427.95s var:461/471 constraints:2689/2769
#Model 2435.51s var:460/471 constraints:2668/2769
#Model 2435.85s var:457/471 constraints:2646/2769
#Model 2441.79s var:456/471 constraints:2626/2769
#Model 2445.42s var:455/471 constraints:2624/2769
#Model 2446.28s var:454/471 constraints:2604/2769
#Model 2448.39s var:453/471 constraints:2585/2769
#Model 2451.81s var:452/471 constraints:2567/2769
#Model 2452.17s var:451/471 constraints:2549/2769
#Model 2452.85s var:450/471 constraints:2529/2769
#Model 2452.95s var:448/471 constraints:2494/2769
#Model 2453.36s var:447/471 constraints:2475/2769
#Model 2455.78s var:433/471 constraints:2305/2769
#Model 2455.92s var:366/471 constraints:1541/2769 compo:365,1
#Done  2455.93s no_lp

Task timing                   n [     min,      max]      avg      dev     time         n [     min,      max]      avg      dev    dtime
        'default_lp':         1 [  40.93m,   40.93m]   40.93m   0.00ns   40.93m         2 [  2.05ms,   42.35m]   21.18m   21.18m   42.35m
  'feasibility_pump':     12179 [844.73us, 131.36ms]   1.53ms   1.21ms   18.61s     12178 [288.18us, 115.05ms] 299.90us   1.04ms    3.65s
                'fj':      9006 [108.27ms, 258.89ms] 135.24ms   9.14ms   20.30m      9006 [ 88.07ms, 100.15ms] 100.02ms 126.92us   15.01m
            'max_lp':         1 [  40.93m,   40.93m]   40.93m   0.00ns   40.93m         2 [ 81.51ms,   57.26m]   28.63m   28.63m   57.26m
             'no_lp':         1 [  40.93m,   40.93m]   40.93m   0.00ns   40.93m         2 [  1.65ms,    1.46h]   43.92m   43.92m    1.46h
         'rins/rens':     11150 [829.37us, 211.50ms] 109.23ms  39.10ms   20.30m     11143 [205.90us, 100.50ms]  69.03ms  36.33ms   12.82m

Search stats     Bools   Conflicts    Branches  Restarts  BacktrackToRoot   Backtrack     BoolPropag  IntegerPropag
  'default_lp':    469     243'065   8'087'934     1'321        1'153'039   1'679'956     77'611'063     92'523'114
      'max_lp':    469     101'979  13'543'567       527        1'961'339   2'507'720    123'666'591    161'636'365
       'no_lp':    469  22'405'935  29'818'221    75'724          546'706  22'781'429  1'858'637'633    465'958'640

SAT formula      Fixed  Equiv  Total  VarLeft  BinaryClauses  PermanentClauses  TemporaryClauses
  'default_lp':     24      7    469      438          2'526            18'337             1'494
      'max_lp':     18      7    469      444          2'584            23'712             1'151
       'no_lp':    191      7    469      271          2'676            35'370             2'386

SAT stats        ClassicMinim   LitRemoved  LitRemovedBinary   LitLearned  LitForgotten   Subsumed
  'default_lp':       212'283    2'616'573         1'295'517    6'800'294     4'243'924     94'323
      'max_lp':        86'127      985'984           516'869    2'045'587       880'503     45'779
       'no_lp':    20'085'484  325'697'588       105'203'198  523'695'113   406'629'014  6'375'287

Vivification       Clauses   Decisions  LitTrue  Subsumed  LitRemoved  DecisionReused  Conflicts
  'default_lp':  1'181'484   7'537'213        0    24'177     252'126         371'997      2'555
      'max_lp':  2'021'945  13'038'913        0    26'266     280'272         557'635      3'051
       'no_lp':    398'297   3'463'359        3    30'868     398'356          98'885      1'784

Clause deletion    at_true  l_and_not(l)  to_binary  sub_conflict  sub_extra  sub_decisions  sub_eager  sub_vivify  sub_probing  sub_inpro  blocked  eliminated   forgotten    promoted   conflicts
    'default_lp':   23'907            15         36        92'970        641          4'142      1'353      24'177        9'574     29'736        0           0     118'115     467'367     243'065
        'max_lp':   15'935            24         28        45'272        206          1'525        507      26'266       11'403     26'016        0           0      30'069     164'687     101'979
         'no_lp':  104'674            30        158     6'269'278     40'127        285'138    106'009      30'868       24'421    205'355        0           0  15'308'325  50'141'539  22'405'935

Lp stats         Component  Iterations  AddedCuts  OPTIMAL  DUAL_F.  DUAL_U.
  'default_lp':          1  31'003'508     82'326  324'346        0  184'210
      'max_lp':          1  13'336'584     66'639   29'496   61'141   29'387

Lp dimension        Final dimension of first component
  'default_lp':   410 rows, 335 columns, 15047 entries
      'max_lp':  1496 rows, 471 columns, 42821 entries

Lp debug         CutPropag  CutEqPropag   Adjust  Overflow        Bad  BadScaling
  'default_lp':          0          136  184'208         0  2'455'101           0
      'max_lp':          0          396   29'383         0  2'094'096           0

Lp pool          Constraints  Updates  Simplif  Merged  Shortened  Split  Strengthened       Cuts/Call
  'default_lp':       10'088   16'799   17'582       0     17'891    631             6  82'326/119'881
      'max_lp':       12'739   21'323   13'794       5     13'769  1'308         1'329  66'639/107'047

Lp Cut            default_lp  max_lp
          CG_FF:         714      98
           CG_K:         346      10
          CG_KL:         347       1
           CG_R:         749      76
          CG_RB:          25       4
         CG_RBP:           2       1
         Clique:           -     243
             IB:          44       2
       MIR_1_FF:         343     615
        MIR_1_K:          57      28
       MIR_1_KL:         214      20
        MIR_1_R:         326     316
      MIR_1_RLT:           -   6'449
       MIR_2_FF:         445     554
        MIR_2_K:          70     128
       MIR_2_KL:         190      56
        MIR_2_R:         681     529
       MIR_2_RB:           4       8
      MIR_2_RBP:           6       3
       MIR_3_FF:         226     141
        MIR_3_K:          34      35
       MIR_3_KL:          72      15
        MIR_3_R:         349     209
       MIR_3_RB:           2       6
      MIR_3_RBP:           3       1
       MIR_4_FF:          67      29
        MIR_4_K:           9       5
       MIR_4_KL:          22       8
        MIR_4_R:         228     183
       MIR_4_RB:           2      11
      MIR_4_RBP:           3       2
       MIR_5_FF:          27      16
        MIR_5_K:           7       6
       MIR_5_KL:           1       1
        MIR_5_R:         202     139
       MIR_5_RB:           8       6
      MIR_5_RBP:           5       4
       MIR_6_FF:          23       7
        MIR_6_K:           9       2
       MIR_6_KL:           -       1
        MIR_6_R:         135     154
       MIR_6_RB:           1       7
      MIR_6_RBP:           1       3
   ZERO_HALF_FF:         347     414
    ZERO_HALF_K:          40       8
   ZERO_HALF_KL:          61       1
    ZERO_HALF_R:      75'844  56'042
   ZERO_HALF_RB:          18       -
  ZERO_HALF_RBP:          17      42

LNS stats       Improv/Calls  Closed  Difficulty  TimeLimit
  'rins/rens':   11143/11143     50%    8.13e-01       0.10

LS stats                                    Batches  Restarts/Perturbs    LinMoves    GenMoves  CompoundMoves  Bactracks  WeightUpdates  ScoreComputed
                             'fj_restart':      769                112  23'522'098           0              0          0     20'900'790     15'115'216
                    'fj_restart_compound':      970                108           0  10'287'758        323'431  4'981'944         37'370    169'873'792
                'fj_restart_compound_obj':      554                115           0   5'903'531        307'184  2'797'951         16'275     96'102'839
            'fj_restart_compound_perturb':      469                122           0   4'973'045        297'656  2'337'478         12'435     81'090'116
        'fj_restart_compound_perturb_obj':      646                124           0   7'023'801        351'509  3'335'874         18'103    111'850'638
                       'fj_restart_decay':      369                128  11'050'769           0              0          0        482'918      3'198'052
              'fj_restart_decay_compound':      475                134           0   5'381'970        905'725  2'237'785          6'219     82'972'722
          'fj_restart_decay_compound_obj':      587                138           0   6'786'989      1'138'217  2'824'051          7'637    102'703'600
      'fj_restart_decay_compound_perturb':      630                115           0   7'470'454      1'249'685  3'110'113          8'219    110'565'864
  'fj_restart_decay_compound_perturb_obj':      988                129           0  11'905'588      1'995'047  4'954'968         12'882    173'671'035
                   'fj_restart_decay_obj':      323                113   9'668'112           0              0          0        422'486      2'800'378
               'fj_restart_decay_perturb':      442                125  13'234'280           0              0          0        577'922      3'836'215
           'fj_restart_decay_perturb_obj':      368                128  11'019'171           0              0          0        481'879      3'180'028
                         'fj_restart_obj':      244                114   7'474'856           0              0          0      5'861'586      4'601'287
                     'fj_restart_perturb':      677                149  21'017'702           0              0          0     17'138'391     12'958'631
                 'fj_restart_perturb_obj':      495                129  15'195'053           0              0          0     12'401'512      9'839'680

Solution repositories    Added  Queried  Synchro
    'alternative_path':      0        0        0
      'best_solutions':      0        0        0
   'fj solution hints':  1'975        0    1'975
        'lp solutions':    862   11'150      862
                'pump':      0        0

Improving bounds shared    Num  Sym
            'default_lp':    2    0
                'max_lp':    4    0
                 'no_lp':  114    0

Clauses shared    #Exported  #Imported  #BinaryRead  #BinaryTotal
   'default_lp':      4'997     83'160        1'040         1'184
       'max_lp':      6'155     80'805          951         1'184
        'no_lp':     81'342     10'494        1'184         1'184

LRAT_status: NA
CpSolverResponse summary:
status: INFEASIBLE
objective: NA
best_bound: NA
integers: 349
booleans: 469
conflicts: 22405935
branches: 29818221
propagations: 1858637633
integer_propagations: 465958640
restarts: 75724
lp_iterations: 0
walltime: 2455.95
usertime: 2455.95
deterministic_time: 12920.2
gap_integral: 0

{
  "board_size": 22,
  "parity_proved": 0,
  "target": 34,
  "child_id": 1491,
  "child_count": 2640,
  "partition": "unknown_pair_x_diag_plus_twos_x_diag_minus_twos",
  "build_seconds": 0.08005332946777344,
  "workers": 4,
  "requested_seed": 2026073591,
  "effective_seed": 2026073591,
  "main_diagonal_pair": [
    3,
    15
  ],
  "pair_index": 68,
  "diag_plus_twos": 16,
  "diag_minus_twos": 15,
  "pair_excess": 3,
  "residual_certificate_slack": 109,
  "analytic_minimum_line_defect": 46,
  "analytic_defect_details": {
    "row_costs": {
      "12": 6,
      "13": 3,
      "14": 0,
      "15": 0,
      "16": 0,
      "17": 0
    },
    "column_costs": {
      "12": 6,
      "13": 3,
      "14": 0,
      "15": 0,
      "16": 0,
      "17": 0
    },
    "plus_cost": 24,
    "minus_cost": 22,
    "row_column_minimum": 0
  },
  "maximal_line_constraints": 2455,
  "analytic_infeasible": false,
  "allowed_points": 242,
  "status": "INFEASIBLE",
  "proof_method": "cp_sat_all_lines_with_certificate_profile_cuts",
  "elapsed_seconds": 2455.9473943710327,
  "branches": 29818221,
  "conflicts": 22405935
}
